Route #1: 0 6 25 29 45 48 42 0
Route #2: 0 20 19 51 23 37 34 9 0
Route #3: 0 62 3 53 15 0
Route #4: 0 57 27 14 28 1 17 0
Route #5: 0 11 43 12 22 18 38 0
Route #6: 0 10 41 56 52 13 61 32 33 0
Route #7: 0 24 60 16 8 46 47 63 2 58 0
Route #8: 0 4 54 5 59 59 55 31 0
Route #9: 0 35 26 21 7 44 39 36 40 50 49 30 0
Cost 1484:
